proyfinal/src/viki/013/experimentInOfficeAgust.take6.output/fe7f36f8-36c6-4a61-bc6c-c83b2f2ee297.als.dat
{'cnf.clauses': '118081',
 'cnf.totvars': '69608',
 'conflict literals': '152',
 'conflicts': '54',
 'decisions': '12908',
 'memused.mb': '16.14',
 'outcome': 'UNSAT',
 'propagations': '47578',
 'restarts': '1',
 'solver.msecs': 33,
 'task.msecs': 77}
