proyfinal/src/viki/013/experimentInOfficeAgust.take6.output/fe7f36f8-36c6-4a61-bc6c-c83b2f2ee297.als.out
Reading from standard input... Use '--help' for help.
============================[ Problem Statistics ]=============================
|                                                                             |
|  Number of variables:         69608                                         |
|  Number of clauses:          118081                                         |
|  Parse time:                   0.02 s                                       |
|                                                                             |
============================[ Search Statistics ]==============================
| Conflicts |          ORIGINAL         |          LEARNT          | Progress |
|           |    Vars  Clauses Literals |    Limit  Clauses Lit/Cl |          |
===============================================================================
===============================================================================
restarts              : 1
conflicts             : 54             (1617 /sec)
decisions             : 12908          (0.00 % random) (386537 /sec)
propagations          : 47578          (1424747 /sec)
conflict literals     : 152            (5.59 % deleted)
Memory used           : 16.14 MB
CPU time              : 0.033394 s

UNSATISFIABLE
